Custom/7541208_21.param
$ LBS instance with n = 21, seed = 7541208
letting cards be [38,20,32,24,35,13,45,51,37,19,0,27,21,41,8,49,28,12,14,4,1]
